
Gurobi 6.5.2 (win64) logging started 08/12/16 04:19:39

Optimize a model with 250 rows, 177 columns and 772 nonzeros
Coefficient statistics:
  Matrix range    [1e+00, 1e+00]
  Objective range [3e+01, 3e+03]
  Bounds range    [1e+00, 1e+00]
  RHS range       [1e+00, 1e+00]
Found heuristic solution: objective 3178.33
Variable types: 0 continuous, 177 integer (177 binary)

Root relaxation: objective -4.431500e+03, 52 iterations, 0.00 seconds

    Nodes    |    Current Node    |     Objective Bounds      |     Work
 Expl Unexpl |  Obj  Depth IntInf | Incumbent    BestBd   Gap | It/Node Time

*    0     0               0    -4431.500000 -4431.5000  0.00%     -    0s

Explored 0 nodes (52 simplex iterations) in 0.01 seconds
Thread count was 12 (of 12 available processors)

Optimal solution found (tolerance 1.00e-04)
Best objective -4.431500000000e+03, best bound -4.431500000000e+03, gap 0.0%
Obj: -4431.5